(declare-fun b14 () (_ FloatingPoint 8 24))
(declare-fun b17 () (_ FloatingPoint 8 24))
(declare-fun b37 () (_ FloatingPoint 8 24))
(declare-fun b10 () (_ FloatingPoint 8 24))
(declare-fun b11 () (_ FloatingPoint 8 24))
(declare-fun b20 () (_ FloatingPoint 8 24))
(declare-fun b34 () (_ FloatingPoint 8 24))
(assert (let ((.def_30 (fp.lt b17 b37)))
(let ((.def_28 (fp.lt b34 b17)))
(let ((.def_26 (fp.lt b14 b37)))
(let ((.def_24 (fp.lt b34 b14)))
(let ((.def_22 (fp.lt b11 b37)))
(let ((.def_13 (fp.mul RNE b11 b10)))
(let ((.def_15 (fp.mul RNE .def_13 b14)))
(let ((.def_17 (fp.mul RNE .def_15 b17)))
(let ((.def_19 (fp.lt .def_17 b20)))
(let ((.def_11 (fp.lt b34 b11)))
(let ((.def_20 (and .def_11 .def_19)))
(let ((.def_23 (and .def_20 .def_22)))
(let ((.def_25 (and .def_23 .def_24)))
(let ((.def_27 (and .def_25 .def_26)))
(let ((.def_29 (and .def_27 .def_28)))
(let ((.def_31 (and .def_29 .def_30)))
.def_31)))))))))))))))))
(check-sat)
